&control
  calculation  = 'nscf'
  prefix       = 'Si'
  outdir       = './out'
  pseudo_dir   = './pseudo'
/
&system
  ibrav        = 2
  celldm(1)    = 10.263
  nat          = 2
  ntyp         = 1
  ecutwfc      = 40.0
  ecutrho      = 320.0
  occupations  = 'tetrahedra'
/
&electrons
  conv_thr     = 1.0d-8
/
ATOMIC_SPECIES
  Si  28.085  Si.pbe-n-kjpaw_psl.1.0.0.UPF

ATOMIC_POSITIONS {alat}
  Si  0.00  0.00  0.00
  Si  0.25  0.25  0.25

K_POINTS {automatic}
 16 16 16  0 0 0
