Si bulk diamond cubic
1.0
   2.734950    2.734950    0.000000
   0.000000    2.734950    2.734950
   2.734950    0.000000    2.734950
Si
2
Direct
  0.000000  0.000000  0.000000
  0.250000  0.250000  0.250000
