Monkhorst-Pack 4x4x6 for rutile
0
Monkhorst-Pack
  4  4  6
  0  0  0
