TiO2 rutile P42/mnm
1.0
   4.594000    0.000000    0.000000
   0.000000    4.594000    0.000000
   0.000000    0.000000    2.959000
Ti O
2 4
Direct
  0.000000  0.000000  0.000000
  0.500000  0.500000  0.500000
  0.304900  0.304900  0.000000
  0.695100  0.695100  0.000000
  0.195100  0.804900  0.500000
  0.804900  0.195100  0.500000
