Gamma only — large CoPc unit cell
0
Gamma
  1  1  1
  0  0  0
