CoPc monolayer in periodic box (simplified — Co + N4 core shown)
1.0
  13.400000    0.000000    0.000000
   0.000000   13.400000    0.000000
   0.000000    0.000000   20.000000
Co C N H
1 32 8 16
Cartesian
  6.700000  6.700000  10.000000  ! Co center
  5.300000  6.700000  10.000000  ! N (isoindole)
  8.100000  6.700000  10.000000  ! N
  6.700000  5.300000  10.000000  ! N
  6.700000  8.100000  10.000000  ! N
  4.200000  6.700000  10.000000  ! C alpha
  9.200000  6.700000  10.000000  ! C alpha
  6.700000  4.200000  10.000000  ! C alpha
  6.700000  9.200000  10.000000  ! C alpha
  3.100000  5.600000  10.000000  ! C
  3.100000  7.800000  10.000000  ! C
 10.300000  5.600000  10.000000  ! C
 10.300000  7.800000  10.000000  ! C
  5.600000  3.100000  10.000000  ! C
  7.800000  3.100000  10.000000  ! C
  5.600000 10.300000  10.000000  ! C
  7.800000 10.300000  10.000000  ! C
  2.200000  5.100000  10.000000  ! C outer
  2.200000  8.300000  10.000000  ! C outer
 11.200000  5.100000  10.000000  ! C outer
 11.200000  8.300000  10.000000  ! C outer
  5.100000  2.200000  10.000000  ! C outer
  8.300000  2.200000  10.000000  ! C outer
  5.100000 11.200000  10.000000  ! C outer
  8.300000 11.200000  10.000000  ! C outer
  3.500000  4.200000  10.000000  ! C benzo
  3.500000  9.200000  10.000000  ! C benzo
  9.900000  4.200000  10.000000  ! C benzo
  9.900000  9.200000  10.000000  ! C benzo
  4.200000  3.500000  10.000000  ! C benzo
  9.200000  3.500000  10.000000  ! C benzo
  4.200000  9.900000  10.000000  ! C benzo
  9.200000  9.900000  10.000000  ! C benzo
  4.900000  6.700000  10.000000  ! N aza
  8.500000  6.700000  10.000000  ! N aza
  6.700000  4.900000  10.000000  ! N aza
  6.700000  8.500000  10.000000  ! N aza
  1.800000  4.700000  10.000000  ! H
  1.800000  8.700000  10.000000  ! H
 11.600000  4.700000  10.000000  ! H
 11.600000  8.700000  10.000000  ! H
  4.700000  1.800000  10.000000  ! H
  8.700000  1.800000  10.000000  ! H
  4.700000 11.600000  10.000000  ! H
  8.700000 11.600000  10.000000  ! H
  2.700000  3.900000  10.000000  ! H
  2.700000  9.500000  10.000000  ! H
 10.700000  3.900000  10.000000  ! H
 10.700000  9.500000  10.000000  ! H
  3.900000  2.700000  10.000000  ! H
  9.500000  2.700000  10.000000  ! H
  3.900000 10.700000  10.000000  ! H
  9.500000 10.700000  10.000000  ! H
  6.700000  6.700000  11.900000  ! CO — C
  6.700000  6.700000  13.000000  ! CO — O
  6.700000  6.700000  10.000000  ! placeholder (Co repeated, replace w/ CONTCAR after relax)
