# INCAR — Step 1: Graphene SCF
SYSTEM  = Graphene SCF
ISTART  = 0
ICHARG  = 2
ENCUT   = 400
PREC    = Accurate
EDIFF   = 1E-6
NSW     = 0
IBRION  = -1
ISMEAR  = 0
SIGMA   = 0.05
ALGO    = Normal
LWAVE   = .TRUE.
LCHARG  = .TRUE.
# vdW correction (optional for monolayer, useful for bilayer)
# IVDW = 12
