# INCAR — Step 2: Graphene band structure (non-SCF)
SYSTEM  = Graphene bands
ISTART  = 1
ICHARG  = 11         # non-SCF, read CHGCAR
ENCUT   = 400
PREC    = Accurate
EDIFF   = 1E-6
NSW     = 0
IBRION  = -1
ISMEAR  = 0
SIGMA   = 0.05
ALGO    = Normal
LORBIT  = 11
LWAVE   = .FALSE.
LCHARG  = .FALSE.
