Gamma-centered 12x12x1 for graphene SCF
0
Gamma
 12 12  1
  0  0  0
