Graphene slab with 15 Ang vacuum (2 atoms, hexagonal)
1.0
   2.467000    0.000000    0.000000
  -1.233500    2.136900    0.000000
   0.000000    0.000000   20.000000
C
2
Direct
  0.000000  0.000000  0.250000
  0.333333  0.666667  0.250000
